\ENCODING=ISO-8859-1
\Problem name: IloCplex

Minimize
 obj: x1 + 1017 x2 + x3 + 5 x4 + 1054 x5 + x6 + 2 x7 + 1039 x8 + x9 + 3 x10
      + 1052 x11 + x12 + 2 x13 + 1046 x14 + x15 + x16 + 955 x17 + x18 + x19
      + 959 x20 + x21 + 4 x22 + 1064 x23 + x24 + 4 x25 + 907 x26 + x27 + 5 x28
      + 937 x29 + x30 + x31 + 1084 x32 + x33 + 2 x34 + 1036 x35 + x36 + 3 x37
      + 914 x38 + x39 + 4 x40 + 948 x41 + x42 + 5 x43 + 1049 x44 + x45 + 2 x46
      + 997 x47 + x48 + x49 + 1081 x50 + x51 + 5 x52 + 964 x53 + x54 + 5 x55
      + 1012 x56 + x57 + x58 + 968 x59 + x60 + 3 x61 + 1015 x62 + x63 + 4 x64
      + 1031 x65 + x66 + 3 x67 + 991 x68 + x69 + x70 + 913 x71 + x72 + 2 x73
      + 972 x74 + x75 + 5 x76 + 908 x77 + x78 + 4 x79 + 1026 x80 + x81 + 2 x82
      + 1093 x83 + x84 + 4 x85 + 1041 x86 + x87 + 3 x88 + 918 x89 + x90 + x91
      + 1088 x92 + x93 + 3 x94 + 1079 x95 + x96 + 5 x97 + 1032 x98 + x99
      + 3 x100 + 1086 x101 + x102 + 4 x103 + 1058 x104 + x105 + x106 + 998 x107
      + x108 + 4 x109 + 962 x110 + x111 + 2 x112 + 1007 x113 + x114 + 3 x115
      + 1084 x116 + x117 + 3 x118 + 936 x119 + x120 + x121 + 1064 x122 + x123
      + 4 x124 + 1096 x125 + x126 + x127 + 1072 x128 + x129 + 3 x130 + 965 x131
      + x132 + 5 x133 + 989 x134 + x135 + x136 + 1078 x137 + x138 + 2 x139
      + 1021 x140 + x141 + 3 x142 + 1042 x143 + x144 + x145 + 1095 x146 + x147
      + 4 x148 + 929 x149 + x150 + 5 x151 + 987 x152 + x153 + x154 + 970 x155
      + x156 + 5 x157 + 1028 x158 + x159 + x160 + 941 x161 + x162 + 5 x163
      + 1022 x164 + x165 + 3 x166 + 1016 x167 + x168 + 4 x169 + 1082 x170
      + x171 + 3 x172 + 1045 x173 + x174 + 5 x175 + 943 x176 + x177 + 3 x178
      + 1058 x179 + x180 + 3 x181 + 1039 x182 + x183 + 4 x184 + 1082 x185
      + x186 + 5 x187 + 1057 x188 + x189 + 4 x190 + 1013 x191 + x192 + 4 x193
      + 1004 x194 + x195 + 4 x196 + 989 x197 + x198 + 5 x199 + 990 x200 + x201
      + 5 x202 + 1082 x203 + x204 + 4 x205 + 932 x206 + x207 + 3 x208
      + 1081 x209 + x210 + 2 x211 + 940 x212 + x213 + 4 x214 + 991 x215 + x216
      + 4 x217 + 1032 x218 + x219 + x220 + 1044 x221 + x222 + x223 + 992 x224
      + x225 + x226 + 910 x227 + x228 + 3 x229 + 991 x230 + x231 + x232
      + 961 x233 + x234 + 2 x235 + 1099 x236 + x237 + 5 x238 + 1084 x239 + x240
      + 3 x241 + 1008 x242 + x243 + 5 x244 + 1045 x245 + x246 + x247 + 943 x248
      + x249 + 3 x250 + 961 x251 + x252 + x253 + 1063 x254 + x255 + 4 x256
      + 1094 x257 + x258 + 3 x259 + 1060 x260 + x261 + 3 x262 + 938 x263 + x264
      + 2 x265 + 1042 x266 + x267 + 5 x268 + 985 x269 + x270
Subject To
 c1:   x1 - x3  = 447
 c2:   x3 + x4 - x6  = 61
 c3:   x6 + x7 - x9  = 386
 c4:   x9 + x10 - x12  = 371
 c5:   x12 + x13 - x15  = 436
 c6:   x15 + x16 - x18  = 260
 c7:   x18 + x19 - x21  = 175
 c8:   x21 + x22 - x24  = 212
 c9:   x24 + x25 - x27  = 145
 c10:  x27 + x28 - x30  = 388
 c11:  x30 + x31 - x33  = 533
 c12:  x33 + x34 - x36  = 299
 c13:  x36 + x37 - x39  = 218
 c14:  x39 + x40 - x42  = 546
 c15:  x42 + x43 - x45  = 61
 c16:  x45 + x46 - x48  = 306
 c17:  x48 + x49 - x51  = 178
 c18:  x51 + x52 - x54  = 469
 c19:  x54 + x55 - x57  = 383
 c20:  x57 + x58 - x60  = 464
 c21:  x60 + x61 - x63  = 39
 c22:  x63 + x64 - x66  = 301
 c23:  x66 + x67 - x69  = 413
 c24:  x69 + x70 - x72  = 161
 c25:  x72 + x73 - x75  = 413
 c26:  x75 + x76 - x78  = 586
 c27:  x78 + x79 - x81  = 141
 c28:  x81 + x82 - x84  = 452
 c29:  x84 + x85 - x87  = 527
 c30:  x87 + x88 - x90  = 493
 c31:  x90 + x91 - x93  = 247
 c32:  x93 + x94 - x96  = 324
 c33:  x96 + x97 - x99  = 193
 c34:  x99 + x100 - x102  = 517
 c35:  x102 + x103 - x105  = 487
 c36:  x105 + x106 - x108  = 497
 c37:  x108 + x109 - x111  = 285
 c38:  x111 + x112 - x114  = 181
 c39:  x114 + x115 - x117  = 283
 c40:  x117 + x118 - x120  = 187
 c41:  x120 + x121 - x123  = 600
 c42:  x123 + x124 - x126  = 155
 c43:  x126 + x127 - x129  = 358
 c44:  x129 + x130 - x132  = 312
 c45:  x132 + x133 - x135  = 393
 c46:  x135 + x136 - x138  = 594
 c47:  x138 + x139 - x141  = 570
 c48:  x141 + x142 - x144  = 378
 c49:  x144 + x145 - x147  = 436
 c50:  x147 + x148 - x150  = 581
 c51:  x150 + x151 - x153  = 326
 c52:  x153 + x154 - x156  = 149
 c53:  x156 + x157 - x159  = 20
 c54:  x159 + x160 - x162  = 363
 c55:  x162 + x163 - x165  = 255
 c56:  x165 + x166 - x168  = 350
 c57:  x168 + x169 - x171  = 341
 c58:  x171 + x172 - x174  = 563
 c59:  x174 + x175 - x177  = 352
 c60:  x177 + x178 - x180  = 299
 c61:  x180 + x181 - x183  = 43
 c62:  x183 + x184 - x186  = 313
 c63:  x186 + x187 - x189  = 185
 c64:  x189 + x190 - x192  = 503
 c65:  x192 + x193 - x195  = 457
 c66:  x195 + x196 - x198  = 575
 c67:  x198 + x199 - x201  = 156
 c68:  x201 + x202 - x204  = 323
 c69:  x204 + x205 - x207  = 77
 c70:  x207 + x208 - x210  = 15
 c71:  x210 + x211 - x213  = 200
 c72:  x213 + x214 - x216  = 501
 c73:  x216 + x217 - x219  = 185
 c74:  x219 + x220 - x222  = 167
 c75:  x222 + x223 - x225  = 105
 c76:  x225 + x226 - x228  = 44
 c77:  x228 + x229 - x231  = 239
 c78:  x231 + x232 - x234  = 172
 c79:  x234 + x235 - x237  = 14
 c80:  x237 + x238 - x240  = 353
 c81:  x240 + x241 - x243  = 203
 c82:  x243 + x244 - x246  = 73
 c83:  x246 + x247 - x249  = 40
 c84:  x249 + x250 - x252  = 321
 c85:  x252 + x253 - x255  = 385
 c86:  x255 + x256 - x258  = 388
 c87:  x258 + x259 - x261  = 595
 c88:  x261 + x262 - x264  = 419
 c89:  x264 + x265 - x267  = 21
 c90:  x267 + x268 - x270  = 116
 c91:  x1 - 998 x2 <= 0
 c92:  x4 - 892 x5 <= 0
 c93:  x7 - 995 x8 <= 0
 c94:  x10 - 868 x11 <= 0
 c95:  x13 - 844 x14 <= 0
 c96:  x16 - 952 x17 <= 0
 c97:  x19 - 950 x20 <= 0
 c98:  x22 - 854 x23 <= 0
 c99:  x25 - 918 x26 <= 0
 c100: x28 - 919 x29 <= 0
 c101: x31 - 854 x32 <= 0
 c102: x34 - 925 x35 <= 0
 c103: x37 - 989 x38 <= 0
 c104: x40 - 849 x41 <= 0
 c105: x43 - 902 x44 <= 0
 c106: x46 - 865 x47 <= 0
 c107: x49 - 856 x50 <= 0
 c108: x52 - 946 x53 <= 0
 c109: x55 - 868 x56 <= 0
 c110: x58 - 850 x59 <= 0
 c111: x61 - 872 x62 <= 0
 c112: x64 - 843 x65 <= 0
 c113: x67 - 893 x68 <= 0
 c114: x70 - 932 x71 <= 0
 c115: x73 - 949 x74 <= 0
 c116: x76 - 955 x77 <= 0
 c117: x79 - 872 x80 <= 0
 c118: x82 - 854 x83 <= 0
 c119: x85 - 876 x86 <= 0
 c120: x88 - 893 x89 <= 0
 c121: x91 - 1002 x92 <= 0
 c122: x94 - 888 x95 <= 0
 c123: x97 - 902 x98 <= 0
 c124: x100 - 985 x101 <= 0
 c125: x103 - 1008 x104 <= 0
 c126: x106 - 900 x107 <= 0
 c127: x109 - 939 x110 <= 0
 c128: x112 - 958 x113 <= 0
 c129: x115 - 913 x116 <= 0
 c130: x118 - 935 x119 <= 0
 c131: x121 - 1005 x122 <= 0
 c132: x124 - 979 x125 <= 0
 c133: x127 - 833 x128 <= 0
 c134: x130 - 851 x131 <= 0
 c135: x133 - 869 x134 <= 0
 c136: x136 - 836 x137 <= 0
 c137: x139 - 917 x140 <= 0
 c138: x142 - 978 x143 <= 0
 c139: x145 - 872 x146 <= 0
 c140: x148 - 836 x149 <= 0
 c141: x151 - 903 x152 <= 0
 c142: x154 - 922 x155 <= 0
 c143: x157 - 828 x158 <= 0
 c144: x160 - 992 x161 <= 0
 c145: x163 - 1013 x164 <= 0
 c146: x166 - 968 x167 <= 0
 c147: x169 - 915 x170 <= 0
 c148: x172 - 977 x173 <= 0
 c149: x175 - 840 x176 <= 0
 c150: x178 - 856 x179 <= 0
 c151: x181 - 1007 x182 <= 0
 c152: x184 - 973 x185 <= 0
 c153: x187 - 832 x188 <= 0
 c154: x190 - 964 x191 <= 0
 c155: x193 - 968 x194 <= 0
 c156: x196 - 967 x197 <= 0
 c157: x199 - 862 x200 <= 0
 c158: x202 - 894 x203 <= 0
 c159: x205 - 953 x206 <= 0
 c160: x208 - 864 x209 <= 0
 c161: x211 - 864 x212 <= 0
 c162: x214 - 881 x215 <= 0
 c163: x217 - 897 x218 <= 0
 c164: x220 - 991 x221 <= 0
 c165: x223 - 970 x224 <= 0
 c166: x226 - 888 x227 <= 0
 c167: x229 - 864 x230 <= 0
 c168: x232 - 893 x233 <= 0
 c169: x235 - 917 x236 <= 0
 c170: x238 - 919 x239 <= 0
 c171: x241 - 874 x242 <= 0
 c172: x244 - 842 x245 <= 0
 c173: x247 - 848 x248 <= 0
 c174: x250 - 916 x251 <= 0
 c175: x253 - 842 x254 <= 0
 c176: x256 - 970 x257 <= 0
 c177: x259 - 949 x260 <= 0
 c178: x262 - 901 x263 <= 0
 c179: x265 - 950 x266 <= 0
 c180: x268 - 915 x269 <= 0
 c181: x2  = 1
 c182: x5  = 0
 c183: x8  = 1
 c184: x11  = 0
 c185: x14  = 1
 c186: x17  = 0
 c187: x20  = 1
 c188: x23  = 0
 c189: x26  = 0
 c190: x29  = 0
 c191: x32  = 1
 c192: x35  = 0
 c193: x38  = 1
 c194: x41  = 0
 c195: x44  = 0
 c196: x47  = 1
 c197: x50  = 1
 c198: x53  = 0
 c199: x56  = 0
 c200: x59  = 1
 c201: x62  = 0
 c202: x65  = 0
 c203: x68  = 1
 c204: x71  = 0
 c205: x74  = 1
 c206: x77  = 0
 c207: x80  = 0
 c208: x83  = 1
 c209: x86  = 0
 c210: x89  = 1
 c211: x92  = 1
 c212: x95  = 0
 c213: x98  = 0
 c214: x101  = 1
 c215: x104  = 0
 c216: x107  = 1
 c217: x110  = 0
 c218: x113  = 1
 c219: x116  = 0
 c220: x119  = 0
 c221: x122  = 1
 c222: x125  = 0
 c223: x128  = 1
 c224: x131  = 0
 c225: x134  = 0
 c226: x137  = 1
 c227: x140  = 1
 c228: x143  = 0
 c229: x146  = 1
 c230: x149  = 0
 c231: x152  = 0
 c232: x155  = 1
 c233: x158  = 0
 c234: x161  = 1
 c235: x164  = 0
 c236: x167  = 1
 c237: x170  = 0
 c238: x173  = 1
 c239: x176  = 0
 c240: x179  = 1
 c241: x182  = 1
 c242: x185  = 0
 c243: x188  = 0
 c244: x191  = 1
 c245: x194  = 0
 c246: x197  = 1
 c247: x200  = 0
 c248: x203  = 0
 c249: x206  = 1
 c250: x209  = 0
 c251: x212  = 1
 c252: x215  = 0
 c253: x218  = 0
 c254: x221  = 1
 c255: x224  = 0
 c256: x227  = 0
 c257: x230  = 0
 c258: x233  = 1
 c259: x236  = 0
 c260: x239  = 0
 c261: x242  = 1
 c262: x245  = 0
 c263: x248  = 1
 c264: x251  = 0
 c265: x254  = 1
 c266: x257  = 0
 c267: x260  = 0
 c268: x263  = 1
 c269: x266  = 0
 c270: x269  = 0
Bounds
 0 <= x2 <= 1
 0 <= x5 <= 1
 0 <= x8 <= 1
 0 <= x11 <= 1
 0 <= x14 <= 1
 0 <= x17 <= 1
 0 <= x20 <= 1
 0 <= x23 <= 1
 0 <= x26 <= 1
 0 <= x29 <= 1
 0 <= x32 <= 1
 0 <= x35 <= 1
 0 <= x38 <= 1
 0 <= x41 <= 1
 0 <= x44 <= 1
 0 <= x47 <= 1
 0 <= x50 <= 1
 0 <= x53 <= 1
 0 <= x56 <= 1
 0 <= x59 <= 1
 0 <= x62 <= 1
 0 <= x65 <= 1
 0 <= x68 <= 1
 0 <= x71 <= 1
 0 <= x74 <= 1
 0 <= x77 <= 1
 0 <= x80 <= 1
 0 <= x83 <= 1
 0 <= x86 <= 1
 0 <= x89 <= 1
 0 <= x92 <= 1
 0 <= x95 <= 1
 0 <= x98 <= 1
 0 <= x101 <= 1
 0 <= x104 <= 1
 0 <= x107 <= 1
 0 <= x110 <= 1
 0 <= x113 <= 1
 0 <= x116 <= 1
 0 <= x119 <= 1
 0 <= x122 <= 1
 0 <= x125 <= 1
 0 <= x128 <= 1
 0 <= x131 <= 1
 0 <= x134 <= 1
 0 <= x137 <= 1
 0 <= x140 <= 1
 0 <= x143 <= 1
 0 <= x146 <= 1
 0 <= x149 <= 1
 0 <= x152 <= 1
 0 <= x155 <= 1
 0 <= x158 <= 1
 0 <= x161 <= 1
 0 <= x164 <= 1
 0 <= x167 <= 1
 0 <= x170 <= 1
 0 <= x173 <= 1
 0 <= x176 <= 1
 0 <= x179 <= 1
 0 <= x182 <= 1
 0 <= x185 <= 1
 0 <= x188 <= 1
 0 <= x191 <= 1
 0 <= x194 <= 1
 0 <= x197 <= 1
 0 <= x200 <= 1
 0 <= x203 <= 1
 0 <= x206 <= 1
 0 <= x209 <= 1
 0 <= x212 <= 1
 0 <= x215 <= 1
 0 <= x218 <= 1
 0 <= x221 <= 1
 0 <= x224 <= 1
 0 <= x227 <= 1
 0 <= x230 <= 1
 0 <= x233 <= 1
 0 <= x236 <= 1
 0 <= x239 <= 1
 0 <= x242 <= 1
 0 <= x245 <= 1
 0 <= x248 <= 1
 0 <= x251 <= 1
 0 <= x254 <= 1
 0 <= x257 <= 1
 0 <= x260 <= 1
 0 <= x263 <= 1
 0 <= x266 <= 1
 0 <= x269 <= 1
Binaries
 x2  x5  x8  x11  x14  x17  x20  x23  x26  x29  x32  x35  x38  x41  x44  x47 
 x50  x53  x56  x59  x62  x65  x68  x71  x74  x77  x80  x83  x86  x89  x92 
 x95  x98  x101  x104  x107  x110  x113  x116  x119  x122  x125  x128  x131 
 x134  x137  x140  x143  x146  x149  x152  x155  x158  x161  x164  x167  x170 
 x173  x176  x179  x182  x185  x188  x191  x194  x197  x200  x203  x206  x209 
 x212  x215  x218  x221  x224  x227  x230  x233  x236  x239  x242  x245  x248 
 x251  x254  x257  x260  x263  x266  x269 
End
